NAME          
ROWS
 N  OBJ
 L  c1
 L  c2
 L  c3
 L  c4
COLUMNS
    MARKER    'MARKER'                 'INTORG'
    x[1]      c1        878
    x[1]      c2        426
    x[1]      c3        98
    x[1]      c4        397
    x[1]      OBJ       -322
    x[2]      c1        251
    x[2]      c2        547
    x[2]      c3        543
    x[2]      c4        206
    x[2]      OBJ       -900
    x[3]      c1        174
    x[3]      c2        329
    x[3]      c3        227
    x[3]      c4        875
    x[3]      OBJ       -636
    x[4]      c1        620
    x[4]      c2        455
    x[4]      c3        87
    x[4]      c4        444
    x[4]      OBJ       -128
    x[5]      c1        961
    x[5]      c2        426
    x[5]      c3        293
    x[5]      c4        94
    x[5]      OBJ       -340
    x[6]      c1        223
    x[6]      c2        283
    x[6]      c3        839
    x[6]      c4        169
    x[6]      OBJ       -185
    x[7]      c1        996
    x[7]      c2        807
    x[7]      c3        839
    x[7]      c4        292
    x[7]      OBJ       -524
    x[8]      c1        896
    x[8]      c2        32
    x[8]      c3        897
    x[8]      c4        449
    x[8]      OBJ       -975
    x[9]      c1        820
    x[9]      c2        674
    x[9]      c3        822
    x[9]      c4        4
    x[9]      OBJ       -294
    x[10]     c1        937
    x[10]     c2        354
    x[10]     c3        931
    x[10]     c4        497
    x[10]     OBJ       -487
    x[11]     c1        273
    x[11]     c2        677
    x[11]     c3        772
    x[11]     c4        830
    x[11]     OBJ       -884
    x[12]     c1        554
    x[12]     c2        345
    x[12]     c3        250
    x[12]     c4        898
    x[12]     OBJ       -636
    x[13]     c1        460
    x[13]     c2        216
    x[13]     c3        415
    x[13]     c4        208
    x[13]     OBJ       -240
    x[14]     c1        649
    x[14]     c2        418
    x[14]     c3        554
    x[14]     c4        967
    x[14]     OBJ       -859
    x[15]     c1        68
    x[15]     c2        798
    x[15]     c3        458
    x[15]     c4        360
    x[15]     OBJ       -755
    x[16]     c1        559
    x[16]     c2        945
    x[16]     c3        137
    x[16]     c4        908
    x[16]     OBJ       -412
    x[17]     c1        390
    x[17]     c2        783
    x[17]     c3        777
    x[17]     c4        823
    x[17]     OBJ       -293
    x[18]     c1        500
    x[18]     c2        802
    x[18]     c3        991
    x[18]     c4        598
    x[18]     OBJ       -873
    x[19]     c1        606
    x[19]     c2        977
    x[19]     c3        425
    x[19]     c4        168
    x[19]     OBJ       -246
    x[20]     c1        461
    x[20]     c2        839
    x[20]     c3        370
    x[20]     c4        551
    x[20]     OBJ       -830
RHS
    rhs       c1        5638
    rhs       c2        5566
    rhs       c3        5362
    rhs       c4        4869
RANGES
BOUNDS
 BV bounds    x[1]
 BV bounds    x[2]
 BV bounds    x[3]
 BV bounds    x[4]
 BV bounds    x[5]
 BV bounds    x[6]
 BV bounds    x[7]
 BV bounds    x[8]
 BV bounds    x[9]
 BV bounds    x[10]
 BV bounds    x[11]
 BV bounds    x[12]
 BV bounds    x[13]
 BV bounds    x[14]
 BV bounds    x[15]
 BV bounds    x[16]
 BV bounds    x[17]
 BV bounds    x[18]
 BV bounds    x[19]
 BV bounds    x[20]
ENDATA
